Gurobi Optimizer version 9.1.2 build v9.1.2rc0 (linux64)
Thread count: 36 physical cores, 72 logical processors, using up to 32 threads
Optimize a model with 12 rows, 57 columns and 590 nonzeros
Model fingerprint: 0xf32eec78
Model has 47 quadratic constraints
Coefficient statistics:
  Matrix range     [2e-05, 3e+00]
  QMatrix range    [1e+00, 1e+00]
  QLMatrix range   [1e+00, 1e+00]
  Objective range  [8e-03, 7e-01]
  Bounds range     [1e+00, 1e+00]
  RHS range        [1e+00, 1e+00]
Presolve removed 9 rows and 0 columns

Continuous model is non-convex -- solving as a MIP.

Presolve removed 9 rows and 0 columns
Presolve time: 0.00s
Presolved: 189 rows, 57 columns, 443 nonzeros
Presolved model has 47 bilinear constraint(s)
Variable types: 57 continuous, 0 integer (0 binary)

Root relaxation: objective -1.743721e+00, 44 iterations, 0.00 seconds

    Nodes    |    Current Node    |     Objective Bounds      |     Work
 Expl Unexpl |  Obj  Depth IntInf | Incumbent    BestBd   Gap | It/Node Time

     0     0   -1.74372    0   38          -   -1.74372      -     -    0s
H    0     0                       0.6147548   -1.74372   384%     -    0s
     0     0   -1.64739    0    1    0.61475   -1.64739   368%     -    0s
H    0     0                      -1.6450460   -1.64739  0.14%     -    0s
     0     0     cutoff    0        -1.64505   -1.64505  0.00%     -    0s

Cutting planes:
  RLT: 25
  BQP: 3

Explored 1 nodes (76 simplex iterations) in 0.01 seconds
Thread count was 32 (of 72 available processors)

Solution count 2: -1.64505 0.614755 
No other solutions better than -1.64505

Optimal solution found (tolerance 1.00e-04)
Best objective -1.645045978473e+00, best bound -1.645045978473e+00, gap 0.0000%

User-callback calls 78, time in user-callback 0.00 sec
Gurobi Optimizer version 9.1.2 build v9.1.2rc0 (linux64)
Thread count: 36 physical cores, 72 logical processors, using up to 32 threads
Optimize a model with 60 rows, 312 columns and 16100 nonzeros
Model fingerprint: 0xa6f9ef00
Model has 262 quadratic constraints
Coefficient statistics:
  Matrix range     [4e-07, 7e+00]
  QMatrix range    [1e+00, 1e+00]
  QLMatrix range   [1e+00, 1e+00]
  Objective range  [2e-03, 9e-01]
  Bounds range     [1e+00, 1e+00]
  RHS range        [1e+00, 1e+00]
Presolve removed 14 rows and 0 columns

Continuous model is non-convex -- solving as a MIP.

Presolve removed 14 rows and 0 columns
Presolve time: 0.01s
Presolved: 1082 rows, 312 columns, 13758 nonzeros
Presolved model has 262 bilinear constraint(s)
Variable types: 312 continuous, 0 integer (0 binary)

Root relaxation: objective -1.795299e+01, 281 iterations, 0.01 seconds

    Nodes    |    Current Node    |     Objective Bounds      |     Work
 Expl Unexpl |  Obj  Depth IntInf | Incumbent    BestBd   Gap | It/Node Time

     0     0  -17.95299    0  182          -  -17.95299      -     -    0s
     0     0  -17.36365    0   26          -  -17.36365      -     -    0s
     0     0  -17.33863    0   26          -  -17.33863      -     -    0s
     0     0  -17.27178    0   46          -  -17.27178      -     -    0s
     0     0  -17.27017    0   46          -  -17.27017      -     -    0s
     0     0  -17.24575    0   46          -  -17.24575      -     -    0s
     0     0  -17.24434    0   46          -  -17.24434      -     -    0s
     0     0  -17.24409    0   46          -  -17.24409      -     -    0s
     0     2  -17.24409    0   46          -  -17.24409      -     -    0s
* 2179  1944              55     -16.5028143  -16.76432  1.58%  33.5    1s
* 2180  1944              56     -16.5028154  -16.76432  1.58%  33.4    1s
* 2181  1944              56     -16.5028156  -16.76432  1.58%  33.4    1s
* 2840  1802              59     -16.5278214  -16.75853  1.40%  31.4    1s
* 5300   972              63     -16.5282784  -16.75853  1.39%  33.8    3s
* 5422   940              64     -16.5282816  -16.75853  1.39%  33.6    3s
* 6012   963              70     -16.5338152  -16.75853  1.36%  32.9    3s
* 6780  1093              77     -16.5342144  -16.75853  1.36%  31.9    3s
* 6783  1093              76     -16.5342690  -16.75853  1.36%  31.9    3s
* 7091  1131              76     -16.5354937  -16.75853  1.35%  31.6    3s
* 7092  1131              76     -16.5354937  -16.75853  1.35%  31.6    3s
* 7397  1252              56     -16.5357334  -16.75853  1.35%  31.3    3s
* 7616  1325              58     -16.5357342  -16.75853  1.35%  31.1    3s
* 8132  1487              87     -16.5357567  -16.75853  1.35%  30.5    3s
* 8166  1487              78     -16.5372179  -16.75853  1.34%  30.4    3s
* 8167  1487              78     -16.5372179  -16.75853  1.34%  30.4    3s
* 8599  1696              62     -16.5372651  -16.75853  1.34%  29.9    4s
* 8600  1696              62     -16.5372682  -16.75853  1.34%  29.9    4s
* 8601  1696              61     -16.5372747  -16.75853  1.34%  29.9    4s
* 8677  1696              75     -16.5373423  -16.75853  1.34%  29.8    4s
* 8678  1696              75     -16.5373432  -16.75853  1.34%  29.8    4s
* 8806  1696              61     -16.5373439  -16.75853  1.34%  29.6    4s
* 8811  1696              62     -16.5376739  -16.75853  1.34%  29.6    4s
* 8812  1696              62     -16.5377161  -16.75853  1.34%  29.6    4s
* 9163  1952              70     -16.5803297  -16.75853  1.07%  29.3    4s
* 9638  1773              68     -16.5803375  -16.75853  1.07%  28.9    4s
* 9640  1773              69     -16.5803397  -16.75853  1.07%  28.9    4s
*10648  1801              65     -16.5803452  -16.74492  0.99%  28.3    4s
*10650  1801              65     -16.5806161  -16.74492  0.99%  28.3    4s
*10653  1801              66     -16.5806233  -16.74492  0.99%  28.3    4s
*11258  1854              68     -16.5809045  -16.72253  0.85%  27.9    4s
*11260  1854              68     -16.5809693  -16.72253  0.85%  27.9    4s
*11261  1854              68     -16.5809783  -16.72253  0.85%  27.9    4s
*11541  1866              54     -16.5810075  -16.72253  0.85%  27.6    4s
*11542  1866              54     -16.5810131  -16.72253  0.85%  27.6    4s
*11545  1866              54     -16.5810214  -16.72253  0.85%  27.6    4s
*11550  1866              54     -16.5810268  -16.72253  0.85%  27.6    4s
*11783  1866              65     -16.5810640  -16.72253  0.85%  27.4    4s
*11784  1866              65     -16.5810672  -16.72253  0.85%  27.4    4s
*11787  1866              66     -16.5811134  -16.72253  0.85%  27.4    4s
 11923  1886     cutoff   29       -16.58111  -16.72253  0.85%  27.2    5s
*12070  1886              74     -16.5811417  -16.72253  0.85%  27.1    5s
*12071  1886              74     -16.5811479  -16.72253  0.85%  27.1    5s
*12075  1886              74     -16.5814266  -16.72253  0.85%  27.1    5s
*12078  1886              74     -16.5814379  -16.72253  0.85%  27.1    5s
*12153  1886              74     -16.5815845  -16.72253  0.85%  27.1    5s
*12158  1886              75     -16.5819306  -16.72253  0.85%  27.1    5s
*12497  1959              64     -16.5819326  -16.69974  0.71%  26.8    5s
*12801  1959              69     -16.6056667  -16.69974  0.57%  26.5    5s
*12802  1959              69     -16.6056668  -16.69974  0.57%  26.5    5s
*13623  1789              70     -16.6083501  -16.67686  0.41%  26.0    5s
*13728  1789              80     -16.6087312  -16.67686  0.41%  25.9    5s
*15065  1797              68     -16.6089898  -16.66352  0.33%  25.0    5s
*15066  1797              68     -16.6089903  -16.66352  0.33%  25.0    5s
*15273  1797              67     -16.6097965  -16.66352  0.32%  25.0    5s
*15275  1797              68     -16.6099160  -16.66352  0.32%  25.0    5s
*15841  1753              61     -16.6099670  -16.65225  0.25%  24.7    5s
*16425  1786              63     -16.6099746  -16.64914  0.24%  24.4    5s
*16741  1894              60     -16.6108351  -16.64359  0.20%  24.2    6s
*17969  1869              64     -16.6108491  -16.64243  0.19%  23.4    6s
*17971  1869              65     -16.6108554  -16.64243  0.19%  23.4    6s
*18163  1851              68     -16.6108640  -16.64115  0.18%  23.3    6s
*18221  1851              62     -16.6109348  -16.64115  0.18%  23.2    6s
*18841  1810              75     -16.6111874  -16.63710  0.16%  22.9    6s
*18843  1810              74     -16.6112402  -16.63710  0.16%  22.9    6s
*20000  1804              77     -16.6117901  -16.63694  0.15%  22.2    6s
*20213  1804              62     -16.6120785  -16.63694  0.15%  22.1    6s
*20336  1821              69     -16.6122521  -16.63227  0.12%  22.0    6s
*20337  1821              69     -16.6122574  -16.63227  0.12%  22.0    6s
*21314  1889              66     -16.6123223  -16.63137  0.11%  21.5    6s
*21316  1889              67     -16.6123307  -16.63137  0.11%  21.5    6s
*21317  1889              67     -16.6123311  -16.63137  0.11%  21.5    6s
*21320  1889              66     -16.6123350  -16.63137  0.11%  21.5    6s
*21985  1857              70     -16.6123601  -16.62880  0.10%  21.2    7s
*22247  1857              67     -16.6124702  -16.62748  0.09%  21.1    7s
*22249  1857              68     -16.6124707  -16.62748  0.09%  21.1    7s
*22592  1857              65     -16.6127899  -16.62709  0.09%  20.9    7s
*22593  1857              65     -16.6128155  -16.62709  0.09%  20.9    7s
*22594  1857              64     -16.6129094  -16.62709  0.09%  20.9    7s
*22963  1771              60     -16.6129360  -16.62668  0.08%  20.7    7s
*23797  1771              67     -16.6138746  -16.62534  0.07%  20.3    7s
*24469  1689              63     -16.6139124  -16.62389  0.06%  20.1    7s
*24470  1689              63     -16.6139373  -16.62389  0.06%  20.1    7s
*26114  1697              65     -16.6139462  -16.62157  0.05%  19.4    7s
*26115  1697              65     -16.6139466  -16.62157  0.05%  19.4    7s
*26118  1697              65     -16.6139468  -16.62157  0.05%  19.4    7s
*26149  1697              62     -16.6139491  -16.62155  0.05%  19.4    7s
*26150  1697              62     -16.6139518  -16.62155  0.05%  19.4    7s
*26304  1697              62     -16.6139804  -16.62149  0.05%  19.4    7s
*26778  1697              65     -16.6145155  -16.62122  0.04%  19.2    7s
*28007  1563              66     -16.6145226  -16.61998  0.03%  18.9    7s
*28009  1563              67     -16.6145392  -16.61998  0.03%  18.9    7s
*28010  1563              67     -16.6145394  -16.61998  0.03%  18.9    7s
*29338  1329              71     -16.6145988  -16.61906  0.03%  18.4    8s
*29813  1329              72     -16.6146332  -16.61791  0.02%  18.3    8s
*30961  1072              68     -16.6146333  -16.61705  0.01%  17.9    8s
*30966  1072              68     -16.6146397  -16.61705  0.01%  17.9    8s
*31929  1072              69     -16.6146523  -16.61649  0.01%  17.6    8s

Explored 31965 nodes (563153 simplex iterations) in 8.44 seconds
Thread count was 32 (of 72 available processors)

Solution count 10: -16.6147 -16.6146 -16.6146 ... -16.614

Optimal solution found (tolerance 1.00e-04)
Best objective -1.661465231972e+01, best bound -1.661629188077e+01, gap 0.0099%

User-callback calls 65022, time in user-callback 0.01 sec



objective value: -16.614652319722744
objective bound: -16.616291880769882
x_opt: [0.9976112439885378, 1.0, 0.0, 0.25289348615154195, 0.0, 0.0, 1.0, 0.0, 0.0, 0.0, 1.0, 0.0, 1.0, 1.0, 0.09521416524363083, 1.0, 0.0, 1.0, 0.0, 0.0, 0.7619619822753022, 0.7162648220106844, 0.0, 0.766634435042026, 0.0, 0.6948879063878362, 0.0, 1.0, 0.0, 0.0, 1.0, 0.865548656939366, 0.0, 0.30893292421305785, 1.0, 1.0, 0.1719082354814786, 1.0, 0.0, 0.8866867547862152, 1.0, 0.0, 1.0, 0.0, 0.0, 0.0, 0.8163222359558722, 0.0, 1.0, 0.02465050923947866]
GUROBI solution time: 8.440120935440063




